param:	TIME:	Ts	Te:=
1	0   108
2	108   216
3	216   324
4	324   432
5	432   540
;
param:	NODE:	r	st	WS	WE:=
0	0	0	0	540
1	1590	18	85	423
2	990	11	15	331
3	1215	13	22	344
4	1218	14	28	365
5	1704	19	58	405
6	1977	22	15	342
7	900	10	29	356
8	990	11	63	375
9	2160	24	58	392
10	621	7	64	373
;
param: VEHICLE:	Ch	Lh	Ph	ch:=
1	10000	150	2.2384e-005	2.66374
2	15000	200	1.79961e-005	2.66374
3	10000	150	2.2384e-005	2.66374
;
param q_real:=2;
param	nth:=9;
param	nth1:=10;
param:	ARC:	D:=
1	5	11.070000
1	8	53.599998
1	10	76.910004
1	2	81.870003
1	4	90.330002
1	9	98.480003
1	7	122.640999
1	6	140.570007
1	3	166.470993
2	4	10.830000
2	10	10.940000
2	9	21.260000
2	8	31.959999
2	7	56.220001
2	1	81.370003
2	6	81.449997
2	5	90.341003
2	3	98.540001
3	7	42.889999
3	9	79.019997
3	6	87.739998
3	4	93.470001
3	2	98.139999
3	10	99.180000
3	8	117.050003
3	1	165.931000
3	5	178.281998
4	2	10.580000
4	9	16.469999
4	10	17.709999
4	8	40.150002
4	7	51.430000
4	6	76.660004
4	1	89.559998
4	3	93.750000
4	5	98.530998
5	1	11.040000
5	8	63.480999
5	10	86.041000
5	2	91.000999
5	4	99.460999
5	9	107.611000
5	7	131.990997
5	6	150.460007
5	3	178.690994
6	7	57.560001
6	9	62.130001
6	4	76.580002
6	2	81.250000
6	10	82.110001
6	3	87.559998
6	8	94.970001
6	1	140.729996
6	5	150.389999
7	9	36.590000
7	3	43.020000
7	4	51.040001
7	2	55.709999
7	10	56.750000
7	6	57.689999
7	8	74.529999
7	1	123.411003
7	5	132.901001
8	10	27.049999
8	2	32.009998
8	4	40.470001
8	9	48.619999
8	1	53.639999
8	5	62.800999
8	7	75.019997
8	6	94.580002
8	3	117.690002
9	4	16.580000
9	2	21.250000
9	10	22.290001
9	7	36.880001
9	8	48.650002
9	6	62.110001
9	3	79.199997
9	1	98.059998
9	5	107.030998
10	2	11.480000
10	4	18.040001
10	9	21.959999
10	8	26.930000
10	7	56.919998
10	1	76.339996
10	6	82.150002
10	5	85.310997
10	3	99.239998
0	4	7.810000
0	9	9.540000
0	2	12.360000
0	10	13.370000
0	8	39.759998
0	7	44.500000
0	6	69.730003
0	3	86.820000
0	1	89.169998
0	5	98.140999
4	0	7.750000
9	0	9.920000
2	0	12.240000
10	0	12.470000
8	0	39.130001
7	0	44.380001
6	0	69.919998
3	0	86.809998
1	0	88.989998
5	0	98.121002
;
param:	v:=
1	5	1	99
1	5	2	32
1	5	3	25
1	5	4	54
1	5	5	92
1	8	1	78
1	8	2	43
1	8	3	17
1	8	4	48
1	8	5	88
1	10	1	87
1	10	2	31
1	10	3	25
1	10	4	40
1	10	5	84
1	2	1	83
1	2	2	43
1	2	3	16
1	2	4	41
1	2	5	94
1	4	1	71
1	4	2	42
1	4	3	22
1	4	4	40
1	4	5	87
1	9	1	87
1	9	2	45
1	9	3	25
1	9	4	41
1	9	5	84
1	7	1	94
1	7	2	44
1	7	3	20
1	7	4	59
1	7	5	93
1	6	1	96
1	6	2	50
1	6	3	11
1	6	4	60
1	6	5	100
1	3	1	80
1	3	2	42
1	3	3	22
1	3	4	31
1	3	5	82
2	4	1	97
2	4	2	37
2	4	3	15
2	4	4	39
2	4	5	79
2	10	1	72
2	10	2	58
2	10	3	17
2	10	4	43
2	10	5	84
2	9	1	87
2	9	2	52
2	9	3	10
2	9	4	59
2	9	5	99
2	8	1	74
2	8	2	46
2	8	3	26
2	8	4	38
2	8	5	70
2	7	1	75
2	7	2	53
2	7	3	15
2	7	4	35
2	7	5	100
2	1	1	95
2	1	2	52
2	1	3	23
2	1	4	38
2	1	5	72
2	6	1	95
2	6	2	56
2	6	3	19
2	6	4	60
2	6	5	74
2	5	1	80
2	5	2	37
2	5	3	14
2	5	4	57
2	5	5	97
2	3	1	75
2	3	2	44
2	3	3	28
2	3	4	56
2	3	5	77
3	7	1	88
3	7	2	40
3	7	3	29
3	7	4	55
3	7	5	96
3	9	1	73
3	9	2	35
3	9	3	17
3	9	4	49
3	9	5	83
3	6	1	81
3	6	2	46
3	6	3	29
3	6	4	51
3	6	5	99
3	4	1	78
3	4	2	59
3	4	3	18
3	4	4	39
3	4	5	76
3	2	1	85
3	2	2	56
3	2	3	13
3	2	4	60
3	2	5	100
3	10	1	98
3	10	2	48
3	10	3	17
3	10	4	55
3	10	5	82
3	8	1	97
3	8	2	42
3	8	3	16
3	8	4	46
3	8	5	90
3	1	1	94
3	1	2	45
3	1	3	26
3	1	4	33
3	1	5	92
3	5	1	99
3	5	2	43
3	5	3	18
3	5	4	53
3	5	5	89
4	2	1	91
4	2	2	51
4	2	3	12
4	2	4	57
4	2	5	94
4	9	1	85
4	9	2	35
4	9	3	29
4	9	4	53
4	9	5	89
4	10	1	89
4	10	2	53
4	10	3	29
4	10	4	30
4	10	5	100
4	8	1	89
4	8	2	58
4	8	3	20
4	8	4	49
4	8	5	88
4	7	1	70
4	7	2	31
4	7	3	12
4	7	4	53
4	7	5	89
4	6	1	76
4	6	2	32
4	6	3	24
4	6	4	33
4	6	5	91
4	1	1	83
4	1	2	46
4	1	3	19
4	1	4	53
4	1	5	70
4	3	1	89
4	3	2	41
4	3	3	11
4	3	4	57
4	3	5	97
4	5	1	71
4	5	2	45
4	5	3	11
4	5	4	42
4	5	5	73
5	1	1	93
5	1	2	57
5	1	3	16
5	1	4	31
5	1	5	89
5	8	1	92
5	8	2	52
5	8	3	17
5	8	4	47
5	8	5	93
5	10	1	91
5	10	2	56
5	10	3	22
5	10	4	49
5	10	5	89
5	2	1	92
5	2	2	33
5	2	3	19
5	2	4	60
5	2	5	98
5	4	1	78
5	4	2	34
5	4	3	14
5	4	4	33
5	4	5	78
5	9	1	76
5	9	2	42
5	9	3	23
5	9	4	57
5	9	5	79
5	7	1	95
5	7	2	53
5	7	3	11
5	7	4	60
5	7	5	88
5	6	1	90
5	6	2	54
5	6	3	24
5	6	4	57
5	6	5	95
5	3	1	75
5	3	2	40
5	3	3	26
5	3	4	31
5	3	5	79
6	7	1	88
6	7	2	33
6	7	3	18
6	7	4	57
6	7	5	86
6	9	1	98
6	9	2	45
6	9	3	27
6	9	4	45
6	9	5	80
6	4	1	87
6	4	2	41
6	4	3	16
6	4	4	58
6	4	5	83
6	2	1	89
6	2	2	33
6	2	3	20
6	2	4	50
6	2	5	75
6	10	1	95
6	10	2	52
6	10	3	28
6	10	4	59
6	10	5	74
6	3	1	93
6	3	2	48
6	3	3	26
6	3	4	58
6	3	5	76
6	8	1	74
6	8	2	59
6	8	3	25
6	8	4	48
6	8	5	83
6	1	1	91
6	1	2	48
6	1	3	14
6	1	4	47
6	1	5	88
6	5	1	97
6	5	2	40
6	5	3	19
6	5	4	45
6	5	5	91
7	9	1	83
7	9	2	57
7	9	3	13
7	9	4	58
7	9	5	92
7	3	1	99
7	3	2	56
7	3	3	11
7	3	4	35
7	3	5	74
7	4	1	98
7	4	2	52
7	4	3	12
7	4	4	32
7	4	5	96
7	2	1	70
7	2	2	36
7	2	3	16
7	2	4	39
7	2	5	71
7	10	1	92
7	10	2	46
7	10	3	15
7	10	4	33
7	10	5	75
7	6	1	87
7	6	2	44
7	6	3	14
7	6	4	32
7	6	5	93
7	8	1	87
7	8	2	31
7	8	3	17
7	8	4	31
7	8	5	93
7	1	1	82
7	1	2	49
7	1	3	21
7	1	4	46
7	1	5	77
7	5	1	80
7	5	2	41
7	5	3	21
7	5	4	38
7	5	5	76
8	10	1	79
8	10	2	36
8	10	3	18
8	10	4	42
8	10	5	72
8	2	1	75
8	2	2	54
8	2	3	18
8	2	4	59
8	2	5	78
8	4	1	89
8	4	2	60
8	4	3	29
8	4	4	59
8	4	5	85
8	9	1	78
8	9	2	57
8	9	3	24
8	9	4	30
8	9	5	90
8	1	1	85
8	1	2	39
8	1	3	28
8	1	4	37
8	1	5	74
8	5	1	89
8	5	2	49
8	5	3	10
8	5	4	60
8	5	5	94
8	7	1	79
8	7	2	44
8	7	3	19
8	7	4	39
8	7	5	71
8	6	1	90
8	6	2	49
8	6	3	10
8	6	4	47
8	6	5	88
8	3	1	97
8	3	2	35
8	3	3	29
8	3	4	52
8	3	5	86
9	4	1	80
9	4	2	50
9	4	3	18
9	4	4	35
9	4	5	73
9	2	1	88
9	2	2	30
9	2	3	15
9	2	4	40
9	2	5	94
9	10	1	71
9	10	2	41
9	10	3	22
9	10	4	54
9	10	5	80
9	7	1	99
9	7	2	34
9	7	3	25
9	7	4	57
9	7	5	83
9	8	1	97
9	8	2	49
9	8	3	26
9	8	4	59
9	8	5	73
9	6	1	75
9	6	2	30
9	6	3	26
9	6	4	32
9	6	5	93
9	3	1	85
9	3	2	52
9	3	3	24
9	3	4	55
9	3	5	77
9	1	1	97
9	1	2	34
9	1	3	14
9	1	4	54
9	1	5	77
9	5	1	85
9	5	2	50
9	5	3	27
9	5	4	45
9	5	5	83
10	2	1	70
10	2	2	49
10	2	3	29
10	2	4	51
10	2	5	89
10	4	1	75
10	4	2	39
10	4	3	19
10	4	4	53
10	4	5	75
10	9	1	76
10	9	2	37
10	9	3	28
10	9	4	46
10	9	5	91
10	8	1	71
10	8	2	30
10	8	3	10
10	8	4	42
10	8	5	92
10	7	1	72
10	7	2	36
10	7	3	26
10	7	4	54
10	7	5	75
10	1	1	79
10	1	2	44
10	1	3	12
10	1	4	58
10	1	5	79
10	6	1	98
10	6	2	60
10	6	3	10
10	6	4	59
10	6	5	87
10	5	1	76
10	5	2	54
10	5	3	16
10	5	4	44
10	5	5	95
10	3	1	83
10	3	2	58
10	3	3	15
10	3	4	52
10	3	5	86
0	4	1	83
0	4	2	52
0	4	3	27
0	4	4	45
0	4	5	79
0	9	1	99
0	9	2	33
0	9	3	22
0	9	4	43
0	9	5	71
0	2	1	99
0	2	2	38
0	2	3	23
0	2	4	33
0	2	5	81
0	10	1	88
0	10	2	52
0	10	3	19
0	10	4	55
0	10	5	80
0	8	1	97
0	8	2	59
0	8	3	12
0	8	4	31
0	8	5	82
0	7	1	75
0	7	2	50
0	7	3	22
0	7	4	42
0	7	5	71
0	6	1	84
0	6	2	42
0	6	3	14
0	6	4	60
0	6	5	86
0	3	1	86
0	3	2	44
0	3	3	29
0	3	4	59
0	3	5	73
0	1	1	90
0	1	2	35
0	1	3	27
0	1	4	40
0	1	5	71
0	5	1	91
0	5	2	52
0	5	3	19
0	5	4	41
0	5	5	73
4	0	1	90
4	0	2	50
4	0	3	15
4	0	4	49
4	0	5	95
9	0	1	86
9	0	2	30
9	0	3	19
9	0	4	36
9	0	5	77
2	0	1	88
2	0	2	40
2	0	3	28
2	0	4	44
2	0	5	82
10	0	1	80
10	0	2	49
10	0	3	16
10	0	4	37
10	0	5	79
8	0	1	99
8	0	2	53
8	0	3	12
8	0	4	52
8	0	5	83
7	0	1	100
7	0	2	59
7	0	3	10
7	0	4	30
7	0	5	71
6	0	1	90
6	0	2	49
6	0	3	13
6	0	4	31
6	0	5	73
3	0	1	85
3	0	2	36
3	0	3	11
3	0	4	39
3	0	5	85
1	0	1	81
1	0	2	33
1	0	3	29
1	0	4	47
1	0	5	85
5	0	1	97
5	0	2	33
5	0	3	15
5	0	4	55
5	0	5	88
;
param:	g:=
1	5	1	1	0.568043
1	5	1	2	1.296180
1	5	2	1	0.246870
1	5	2	2	0.290921
1	5	3	1	0.260803
1	5	3	2	0.317588
1	5	4	1	0.286163
1	5	4	2	0.374817
1	5	5	1	0.510132
1	5	5	2	1.087298
1	8	1	1	0.409180
1	8	1	2	0.741915
1	8	2	1	0.255055
1	8	2	2	0.302151
1	8	3	1	0.314502
1	8	3	2	0.386980
1	8	4	1	0.266846
1	8	4	2	0.327669
1	8	5	1	0.479240
1	8	5	2	0.978767
1	10	1	1	0.471770
1	10	1	2	0.952865
1	10	2	1	0.247702
1	10	2	2	0.293050
1	10	3	1	0.260803
1	10	3	2	0.317588
1	10	4	1	0.250135
1	10	4	2	0.292905
1	10	5	1	0.449973
1	10	5	2	0.878115
1	2	1	1	0.442913
1	2	1	2	0.854183
1	2	2	1	0.255055
1	2	2	2	0.302151
1	2	3	1	0.326472
1	2	3	2	0.399619
1	2	4	1	0.251580
1	2	4	2	0.295478
1	2	5	1	0.526181
1	2	5	2	1.144518
1	4	1	1	0.366437
1	4	1	2	0.605446
1	4	2	1	0.253223
1	4	2	2	0.298561
1	4	3	1	0.274382
1	4	3	2	0.338023
1	4	4	1	0.250135
1	4	4	2	0.292905
1	4	5	1	0.471770
1	4	5	2	0.952865
1	9	1	1	0.471770
1	9	1	2	0.952865
1	9	2	1	0.259262
1	9	2	2	0.310848
1	9	3	1	0.260803
1	9	3	2	0.317588
1	9	4	1	0.251580
1	9	4	2	0.295478
1	9	5	1	0.449973
1	9	5	2	0.878115
1	7	1	1	0.526181
1	7	1	2	1.144518
1	7	2	1	0.257070
1	7	2	2	0.306247
1	7	3	1	0.287219
1	7	3	2	0.355115
1	7	4	1	0.306076
1	7	4	2	0.427793
1	7	5	1	0.518107
1	7	5	2	1.115662
1	6	1	1	0.542629
1	6	1	2	1.203706
1	6	2	1	0.272696
1	6	2	2	0.341388
1	6	3	1	0.424417
1	6	3	2	0.487653
1	6	4	1	0.310446
1	6	4	2	0.439877
1	6	5	1	0.576712
1	6	5	2	1.327989
1	3	1	1	0.422358
1	3	1	2	0.785344
1	3	2	1	0.253223
1	3	2	2	0.298561
1	3	3	1	0.274382
1	3	3	2	0.338023
1	3	4	1	0.247702
1	3	4	2	0.293050
1	3	5	1	0.435957
1	3	5	2	0.830744
2	4	1	1	0.551002
2	4	1	2	1.234039
2	4	2	1	0.247069
2	4	2	2	0.288257
2	4	3	1	0.340328
2	4	3	2	0.413505
2	4	4	1	0.248895
2	4	4	2	0.290842
2	4	5	1	0.415716
2	4	5	2	0.763383
2	10	1	1	0.372215
2	10	1	2	0.623462
2	10	2	1	0.301833
2	10	2	2	0.416205
2	10	3	1	0.314502
2	10	3	2	0.386980
2	10	4	1	0.255055
2	10	4	2	0.302151
2	10	5	1	0.449973
2	10	5	2	0.878115
2	9	1	1	0.471770
2	9	1	2	0.952865
2	9	2	1	0.279143
2	9	2	2	0.357106
2	9	3	1	0.456768
2	9	3	2	0.513825
2	9	4	1	0.306076
2	9	4	2	0.427793
2	9	5	1	0.568043
2	9	5	2	1.296180
2	8	1	1	0.384103
2	8	1	2	0.660973
2	8	2	1	0.261626
2	8	2	2	0.315953
2	8	3	1	0.257483
2	8	3	2	0.312044
2	8	4	1	0.247870
2	8	4	2	0.289292
2	8	5	1	0.360770
2	8	5	2	0.587924
2	7	1	1	0.390210
2	7	1	2	0.680469
2	7	2	1	0.282583
2	7	2	2	0.365713
2	7	3	1	0.340328
2	7	3	2	0.413505
2	7	4	1	0.246187
2	7	4	2	0.287745
2	7	5	1	0.576712
2	7	5	2	1.327989
2	1	1	1	0.534355
2	1	1	2	1.173866
2	1	2	1	0.279143
2	1	2	2	0.357106
2	1	3	1	0.269185
2	1	3	2	0.330552
2	1	4	1	0.247870
2	1	4	2	0.289292
2	1	5	1	0.372215
2	1	5	2	0.623462
2	6	1	1	0.534355
2	6	1	2	1.173866
2	6	2	1	0.293733
2	6	2	2	0.394518
2	6	3	1	0.295088
2	6	3	2	0.364835
2	6	4	1	0.310446
2	6	4	2	0.439877
2	6	5	1	0.384103
2	6	5	2	0.660973
2	5	1	1	0.422358
2	5	1	2	0.785344
2	5	2	1	0.247069
2	5	2	2	0.288257
2	5	3	1	0.356456
2	5	3	2	0.428864
2	5	4	1	0.297717
2	5	4	2	0.405114
2	5	5	1	0.551002
2	5	5	2	1.234039
2	3	1	1	0.390210
2	3	1	2	0.680469
2	3	2	1	0.257070
2	3	2	2	0.306247
2	3	3	1	0.252324
2	3	3	2	0.302739
2	3	4	1	0.293733
2	3	4	2	0.394518
2	3	5	1	0.402749
2	3	5	2	0.720940
3	7	1	1	0.479240
3	7	1	2	0.978767
3	7	2	1	0.250135
3	7	2	2	0.292905
3	7	3	1	0.250401
3	7	3	2	0.298951
3	7	4	1	0.289880
3	7	4	2	0.384419
3	7	5	1	0.542629
3	7	5	2	1.203706
3	9	1	1	0.378104
3	9	1	2	0.641971
3	9	2	1	0.246187
3	9	2	2	0.287745
3	9	3	1	0.314502
3	9	3	2	0.386980
3	9	4	1	0.269695
3	9	4	2	0.334278
3	9	5	1	0.442913
3	9	5	2	0.854183
3	6	1	1	0.429105
3	6	1	2	0.807797
3	6	2	1	0.261626
3	6	2	2	0.315953
3	6	3	1	0.250401
3	6	3	2	0.298951
3	6	4	1	0.275847
3	6	4	2	0.348998
3	6	5	1	0.568043
3	6	5	2	1.296180
3	4	1	1	0.409180
3	4	1	2	0.741915
3	4	2	1	0.306076
3	4	2	2	0.427793
3	4	3	1	0.304119
3	4	3	2	0.375426
3	4	4	1	0.248895
3	4	4	2	0.290842
3	4	5	1	0.396426
3	4	5	2	0.700458
3	2	1	1	0.457136
3	2	1	2	0.902539
3	2	2	1	0.293733
3	2	2	2	0.394518
3	2	3	1	0.375359
3	2	3	2	0.446007
3	2	4	1	0.310446
3	2	4	2	0.439877
3	2	5	1	0.576712
3	2	5	2	1.327989
3	10	1	1	0.559473
3	10	1	2	1.264864
3	10	2	1	0.266846
3	10	2	2	0.327669
3	10	3	1	0.314502
3	10	3	2	0.386980
3	10	4	1	0.289880
3	10	4	2	0.384419
3	10	5	1	0.435957
3	10	5	2	0.830744
3	8	1	1	0.551002
3	8	1	2	1.234039
3	8	2	1	0.253223
3	8	2	2	0.298561
3	8	3	1	0.326472
3	8	3	2	0.399619
3	8	4	1	0.261626
3	8	4	2	0.315953
3	8	5	1	0.494484
3	8	5	2	1.032048
3	1	1	1	0.526181
3	1	1	2	1.144518
3	1	2	1	0.259262
3	1	2	2	0.310848
3	1	3	1	0.257483
3	1	3	2	0.312044
3	1	4	1	0.246353
3	1	4	2	0.289331
3	1	5	1	0.510132
3	1	5	2	1.087298
3	5	1	1	0.568043
3	5	1	2	1.296180
3	5	2	1	0.255055
3	5	2	2	0.302151
3	5	3	1	0.304119
3	5	3	2	0.375426
3	5	4	1	0.282583
3	5	4	2	0.365713
3	5	5	1	0.486811
3	5	5	2	1.005161
4	2	1	1	0.502258
4	2	1	2	1.059427
4	2	2	1	0.275847
4	2	2	2	0.348998
4	2	3	1	0.397708
4	2	3	2	0.465383
4	2	4	1	0.297717
4	2	4	2	0.405114
4	2	5	1	0.526181
4	2	5	2	1.144518
4	9	1	1	0.457136
4	9	1	2	0.902539
4	9	2	1	0.246187
4	9	2	2	0.287745
4	9	3	1	0.250401
4	9	3	2	0.298951
4	9	4	1	0.282583
4	9	4	2	0.365713
4	9	5	1	0.486811
4	9	5	2	1.005161
4	10	1	1	0.486811
4	10	1	2	1.005161
4	10	2	1	0.282583
4	10	2	2	0.365713
4	10	3	1	0.250401
4	10	3	2	0.298951
4	10	4	1	0.248870
4	10	4	2	0.295725
4	10	5	1	0.576712
4	10	5	2	1.327989
4	8	1	1	0.486811
4	8	1	2	1.005161
4	8	2	1	0.301833
4	8	2	2	0.416205
4	8	3	1	0.287219
4	8	3	2	0.355115
4	8	4	1	0.269695
4	8	4	2	0.334278
4	8	5	1	0.479240
4	8	5	2	0.978767
4	7	1	1	0.360770
4	7	1	2	0.587924
4	7	2	1	0.247702
4	7	2	2	0.293050
4	7	3	1	0.397708
4	7	3	2	0.465383
4	7	4	1	0.282583
4	7	4	2	0.365713
4	7	5	1	0.486811
4	7	5	2	1.005161
4	6	1	1	0.396426
4	6	1	2	0.700458
4	6	2	1	0.246870
4	6	2	2	0.290921
4	6	3	1	0.264683
4	6	3	2	0.323750
4	6	4	1	0.246353
4	6	4	2	0.289331
4	6	5	1	0.502258
4	6	5	2	1.059427
4	1	1	1	0.442913
4	1	1	2	0.854183
4	1	2	1	0.261626
4	1	2	2	0.315953
4	1	3	1	0.295088
4	1	3	2	0.364835
4	1	4	1	0.282583
4	1	4	2	0.365713
4	1	5	1	0.360770
4	1	5	2	0.587924
4	3	1	1	0.486811
4	3	1	2	1.005161
4	3	2	1	0.251580
4	3	2	2	0.295478
4	3	3	1	0.424417
4	3	3	2	0.487653
4	3	4	1	0.297717
4	3	4	2	0.405114
4	3	5	1	0.551002
4	3	5	2	1.234039
4	5	1	1	0.366437
4	5	1	2	0.605446
4	5	2	1	0.259262
4	5	2	2	0.310848
4	5	3	1	0.424417
4	5	3	2	0.487653
4	5	4	1	0.253223
4	5	4	2	0.298561
4	5	5	1	0.378104
4	5	5	2	0.641971
5	1	1	1	0.518107
5	1	1	2	1.115662
5	1	2	1	0.297717
5	1	2	2	0.405114
5	1	3	1	0.326472
5	1	3	2	0.399619
5	1	4	1	0.247702
5	1	4	2	0.293050
5	1	5	1	0.486811
5	1	5	2	1.005161
5	8	1	1	0.510132
5	8	1	2	1.087298
5	8	2	1	0.279143
5	8	2	2	0.357106
5	8	3	1	0.314502
5	8	3	2	0.386980
5	8	4	1	0.264155
5	8	4	2	0.321560
5	8	5	1	0.518107
5	8	5	2	1.115662
5	10	1	1	0.502258
5	10	1	2	1.059427
5	10	2	1	0.293733
5	10	2	2	0.394518
5	10	3	1	0.274382
5	10	3	2	0.338023
5	10	4	1	0.269695
5	10	4	2	0.334278
5	10	5	1	0.486811
5	10	5	2	1.005161
5	2	1	1	0.510132
5	2	1	2	1.087298
5	2	2	1	0.246353
5	2	2	2	0.289331
5	2	3	1	0.295088
5	2	3	2	0.364835
5	2	4	1	0.310446
5	2	4	2	0.439877
5	2	5	1	0.559473
5	2	5	2	1.264864
5	4	1	1	0.409180
5	4	1	2	0.741915
5	4	2	1	0.246131
5	4	2	2	0.288274
5	4	3	1	0.356456
5	4	3	2	0.428864
5	4	4	1	0.246353
5	4	4	2	0.289331
5	4	5	1	0.409180
5	4	5	2	0.741915
5	9	1	1	0.396426
5	9	1	2	0.700458
5	9	2	1	0.253223
5	9	2	2	0.298561
5	9	3	1	0.269185
5	9	3	2	0.330552
5	9	4	1	0.297717
5	9	4	2	0.405114
5	9	5	1	0.415716
5	9	5	2	0.763383
5	7	1	1	0.534355
5	7	1	2	1.173866
5	7	2	1	0.282583
5	7	2	2	0.365713
5	7	3	1	0.424417
5	7	3	2	0.487653
5	7	4	1	0.310446
5	7	4	2	0.439877
5	7	5	1	0.479240
5	7	5	2	0.978767
5	6	1	1	0.494484
5	6	1	2	1.032048
5	6	2	1	0.286163
5	6	2	2	0.374817
5	6	3	1	0.264683
5	6	3	2	0.323750
5	6	4	1	0.297717
5	6	4	2	0.405114
5	6	5	1	0.534355
5	6	5	2	1.173866
5	3	1	1	0.390210
5	3	1	2	0.680469
5	3	2	1	0.250135
5	3	2	2	0.292905
5	3	3	1	0.257483
5	3	3	2	0.312044
5	3	4	1	0.247702
5	3	4	2	0.293050
5	3	5	1	0.415716
5	3	5	2	0.763383
6	7	1	1	0.479240
6	7	1	2	0.978767
6	7	2	1	0.246353
6	7	2	2	0.289331
6	7	3	1	0.304119
6	7	3	2	0.375426
6	7	4	1	0.297717
6	7	4	2	0.405114
6	7	5	1	0.464402
6	7	5	2	0.927456
6	9	1	1	0.559473
6	9	1	2	1.264864
6	9	2	1	0.259262
6	9	2	2	0.310848
6	9	3	1	0.254672
6	9	3	2	0.307099
6	9	4	1	0.259262
6	9	4	2	0.310848
6	9	5	1	0.422358
6	9	5	2	0.785344
6	4	1	1	0.471770
6	4	1	2	0.952865
6	4	2	1	0.251580
6	4	2	2	0.295478
6	4	3	1	0.326472
6	4	3	2	0.399619
6	4	4	1	0.301833
6	4	4	2	0.416205
6	4	5	1	0.442913
6	4	5	2	0.854183
6	2	1	1	0.486811
6	2	1	2	1.005161
6	2	2	1	0.246353
6	2	2	2	0.289331
6	2	3	1	0.287219
6	2	3	2	0.355115
6	2	4	1	0.272696
6	2	4	2	0.341388
6	2	5	1	0.390210
6	2	5	2	0.680469
6	10	1	1	0.534355
6	10	1	2	1.173866
6	10	2	1	0.279143
6	10	2	2	0.357106
6	10	3	1	0.252324
6	10	3	2	0.302739
6	10	4	1	0.306076
6	10	4	2	0.427793
6	10	5	1	0.384103
6	10	5	2	0.660973
6	3	1	1	0.518107
6	3	1	2	1.115662
6	3	2	1	0.266846
6	3	2	2	0.327669
6	3	3	1	0.257483
6	3	3	2	0.312044
6	3	4	1	0.301833
6	3	4	2	0.416205
6	3	5	1	0.396426
6	3	5	2	0.700458
6	8	1	1	0.384103
6	8	1	2	0.660973
6	8	2	1	0.306076
6	8	2	2	0.427793
6	8	3	1	0.260803
6	8	3	2	0.317588
6	8	4	1	0.266846
6	8	4	2	0.327669
6	8	5	1	0.442913
6	8	5	2	0.854183
6	1	1	1	0.502258
6	1	1	2	1.059427
6	1	2	1	0.266846
6	1	2	2	0.327669
6	1	3	1	0.356456
6	1	3	2	0.428864
6	1	4	1	0.264155
6	1	4	2	0.321560
6	1	5	1	0.479240
6	1	5	2	0.978767
6	5	1	1	0.551002
6	5	1	2	1.234039
6	5	2	1	0.250135
6	5	2	2	0.292905
6	5	3	1	0.295088
6	5	3	2	0.364835
6	5	4	1	0.259262
6	5	4	2	0.310848
6	5	5	1	0.502258
6	5	5	2	1.059427
7	9	1	1	0.442913
7	9	1	2	0.854183
7	9	2	1	0.297717
7	9	2	2	0.405114
7	9	3	1	0.375359
7	9	3	2	0.446007
7	9	4	1	0.301833
7	9	4	2	0.416205
7	9	5	1	0.510132
7	9	5	2	1.087298
7	3	1	1	0.568043
7	3	1	2	1.296180
7	3	2	1	0.293733
7	3	2	2	0.394518
7	3	3	1	0.424417
7	3	3	2	0.487653
7	3	4	1	0.246187
7	3	4	2	0.287745
7	3	5	1	0.384103
7	3	5	2	0.660973
7	4	1	1	0.559473
7	4	1	2	1.264864
7	4	2	1	0.279143
7	4	2	2	0.357106
7	4	3	1	0.397708
7	4	3	2	0.465383
7	4	4	1	0.246870
7	4	4	2	0.290921
7	4	5	1	0.542629
7	4	5	2	1.203706
7	2	1	1	0.360770
7	2	1	2	0.587924
7	2	2	1	0.246504
7	2	2	2	0.287741
7	2	3	1	0.326472
7	2	3	2	0.399619
7	2	4	1	0.248895
7	2	4	2	0.290842
7	2	5	1	0.366437
7	2	5	2	0.605446
7	10	1	1	0.510132
7	10	1	2	1.087298
7	10	2	1	0.261626
7	10	2	2	0.315953
7	10	3	1	0.340328
7	10	3	2	0.413505
7	10	4	1	0.246353
7	10	4	2	0.289331
7	10	5	1	0.390210
7	10	5	2	0.680469
7	6	1	1	0.471770
7	6	1	2	0.952865
7	6	2	1	0.257070
7	6	2	2	0.306247
7	6	3	1	0.356456
7	6	3	2	0.428864
7	6	4	1	0.246870
7	6	4	2	0.290921
7	6	5	1	0.518107
7	6	5	2	1.115662
7	8	1	1	0.471770
7	8	1	2	0.952865
7	8	2	1	0.247702
7	8	2	2	0.293050
7	8	3	1	0.314502
7	8	3	2	0.386980
7	8	4	1	0.247702
7	8	4	2	0.293050
7	8	5	1	0.518107
7	8	5	2	1.115662
7	1	1	1	0.435957
7	1	1	2	0.830744
7	1	2	1	0.269695
7	1	2	2	0.334278
7	1	3	1	0.280358
7	1	3	2	0.346196
7	1	4	1	0.261626
7	1	4	2	0.315953
7	1	5	1	0.402749
7	1	5	2	0.720940
7	5	1	1	0.422358
7	5	1	2	0.785344
7	5	2	1	0.251580
7	5	2	2	0.295478
7	5	3	1	0.280358
7	5	3	2	0.346196
7	5	4	1	0.247870
7	5	4	2	0.289292
7	5	5	1	0.396426
7	5	5	2	0.700458
8	10	1	1	0.415716
8	10	1	2	0.763383
8	10	2	1	0.246504
8	10	2	2	0.287741
8	10	3	1	0.304119
8	10	3	2	0.375426
8	10	4	1	0.253223
8	10	4	2	0.298561
8	10	5	1	0.372215
8	10	5	2	0.623462
8	2	1	1	0.390210
8	2	1	2	0.680469
8	2	2	1	0.286163
8	2	2	2	0.374817
8	2	3	1	0.304119
8	2	3	2	0.375426
8	2	4	1	0.306076
8	2	4	2	0.427793
8	2	5	1	0.409180
8	2	5	2	0.741915
8	4	1	1	0.486811
8	4	1	2	1.005161
8	4	2	1	0.310446
8	4	2	2	0.439877
8	4	3	1	0.250401
8	4	3	2	0.298951
8	4	4	1	0.306076
8	4	4	2	0.427793
8	4	5	1	0.457136
8	4	5	2	0.902539
8	9	1	1	0.409180
8	9	1	2	0.741915
8	9	2	1	0.297717
8	9	2	2	0.405114
8	9	3	1	0.264683
8	9	3	2	0.323750
8	9	4	1	0.248870
8	9	4	2	0.295725
8	9	5	1	0.494484
8	9	5	2	1.032048
8	1	1	1	0.457136
8	1	1	2	0.902539
8	1	2	1	0.248895
8	1	2	2	0.290842
8	1	3	1	0.252324
8	1	3	2	0.302739
8	1	4	1	0.247069
8	1	4	2	0.288257
8	1	5	1	0.384103
8	1	5	2	0.660973
8	5	1	1	0.486811
8	5	1	2	1.005161
8	5	2	1	0.269695
8	5	2	2	0.334278
8	5	3	1	0.456768
8	5	3	2	0.513825
8	5	4	1	0.310446
8	5	4	2	0.439877
8	5	5	1	0.526181
8	5	5	2	1.144518
8	7	1	1	0.415716
8	7	1	2	0.763383
8	7	2	1	0.257070
8	7	2	2	0.306247
8	7	3	1	0.295088
8	7	3	2	0.364835
8	7	4	1	0.248895
8	7	4	2	0.290842
8	7	5	1	0.366437
8	7	5	2	0.605446
8	6	1	1	0.494484
8	6	1	2	1.032048
8	6	2	1	0.269695
8	6	2	2	0.334278
8	6	3	1	0.456768
8	6	3	2	0.513825
8	6	4	1	0.264155
8	6	4	2	0.321560
8	6	5	1	0.479240
8	6	5	2	0.978767
8	3	1	1	0.551002
8	3	1	2	1.234039
8	3	2	1	0.246187
8	3	2	2	0.287745
8	3	3	1	0.250401
8	3	3	2	0.298951
8	3	4	1	0.279143
8	3	4	2	0.357106
8	3	5	1	0.464402
8	3	5	2	0.927456
9	4	1	1	0.422358
9	4	1	2	0.785344
9	4	2	1	0.272696
9	4	2	2	0.341388
9	4	3	1	0.304119
9	4	3	2	0.375426
9	4	4	1	0.246187
9	4	4	2	0.287745
9	4	5	1	0.378104
9	4	5	2	0.641971
9	2	1	1	0.479240
9	2	1	2	0.978767
9	2	2	1	0.248870
9	2	2	2	0.295725
9	2	3	1	0.340328
9	2	3	2	0.413505
9	2	4	1	0.250135
9	2	4	2	0.292905
9	2	5	1	0.526181
9	2	5	2	1.144518
9	10	1	1	0.366437
9	10	1	2	0.605446
9	10	2	1	0.251580
9	10	2	2	0.295478
9	10	3	1	0.274382
9	10	3	2	0.338023
9	10	4	1	0.286163
9	10	4	2	0.374817
9	10	5	1	0.422358
9	10	5	2	0.785344
9	7	1	1	0.568043
9	7	1	2	1.296180
9	7	2	1	0.246131
9	7	2	2	0.288274
9	7	3	1	0.260803
9	7	3	2	0.317588
9	7	4	1	0.297717
9	7	4	2	0.405114
9	7	5	1	0.442913
9	7	5	2	0.854183
9	8	1	1	0.551002
9	8	1	2	1.234039
9	8	2	1	0.269695
9	8	2	2	0.334278
9	8	3	1	0.257483
9	8	3	2	0.312044
9	8	4	1	0.306076
9	8	4	2	0.427793
9	8	5	1	0.378104
9	8	5	2	0.641971
9	6	1	1	0.390210
9	6	1	2	0.680469
9	6	2	1	0.248870
9	6	2	2	0.295725
9	6	3	1	0.257483
9	6	3	2	0.312044
9	6	4	1	0.246870
9	6	4	2	0.290921
9	6	5	1	0.518107
9	6	5	2	1.115662
9	3	1	1	0.457136
9	3	1	2	0.902539
9	3	2	1	0.279143
9	3	2	2	0.357106
9	3	3	1	0.264683
9	3	3	2	0.323750
9	3	4	1	0.289880
9	3	4	2	0.384419
9	3	5	1	0.402749
9	3	5	2	0.720940
9	1	1	1	0.551002
9	1	1	2	1.234039
9	1	2	1	0.246131
9	1	2	2	0.288274
9	1	3	1	0.356456
9	1	3	2	0.428864
9	1	4	1	0.286163
9	1	4	2	0.374817
9	1	5	1	0.402749
9	1	5	2	0.720940
9	5	1	1	0.457136
9	5	1	2	0.902539
9	5	2	1	0.272696
9	5	2	2	0.341388
9	5	3	1	0.254672
9	5	3	2	0.307099
9	5	4	1	0.259262
9	5	4	2	0.310848
9	5	5	1	0.442913
9	5	5	2	0.854183
10	2	1	1	0.360770
10	2	1	2	0.587924
10	2	2	1	0.269695
10	2	2	2	0.334278
10	2	3	1	0.250401
10	2	3	2	0.298951
10	2	4	1	0.275847
10	2	4	2	0.348998
10	2	5	1	0.486811
10	2	5	2	1.005161
10	4	1	1	0.390210
10	4	1	2	0.680469
10	4	2	1	0.248895
10	4	2	2	0.290842
10	4	3	1	0.295088
10	4	3	2	0.364835
10	4	4	1	0.282583
10	4	4	2	0.365713
10	4	5	1	0.390210
10	4	5	2	0.680469
10	9	1	1	0.396426
10	9	1	2	0.700458
10	9	2	1	0.247069
10	9	2	2	0.288257
10	9	3	1	0.252324
10	9	3	2	0.302739
10	9	4	1	0.261626
10	9	4	2	0.315953
10	9	5	1	0.502258
10	9	5	2	1.059427
10	8	1	1	0.366437
10	8	1	2	0.605446
10	8	2	1	0.248870
10	8	2	2	0.295725
10	8	3	1	0.456768
10	8	3	2	0.513825
10	8	4	1	0.253223
10	8	4	2	0.298561
10	8	5	1	0.510132
10	8	5	2	1.087298
10	7	1	1	0.372215
10	7	1	2	0.623462
10	7	2	1	0.246504
10	7	2	2	0.287741
10	7	3	1	0.257483
10	7	3	2	0.312044
10	7	4	1	0.286163
10	7	4	2	0.374817
10	7	5	1	0.390210
10	7	5	2	0.680469
10	1	1	1	0.415716
10	1	1	2	0.763383
10	1	2	1	0.257070
10	1	2	2	0.306247
10	1	3	1	0.397708
10	1	3	2	0.465383
10	1	4	1	0.301833
10	1	4	2	0.416205
10	1	5	1	0.415716
10	1	5	2	0.763383
10	6	1	1	0.559473
10	6	1	2	1.264864
10	6	2	1	0.310446
10	6	2	2	0.439877
10	6	3	1	0.456768
10	6	3	2	0.513825
10	6	4	1	0.306076
10	6	4	2	0.427793
10	6	5	1	0.471770
10	6	5	2	0.952865
10	5	1	1	0.396426
10	5	1	2	0.700458
10	5	2	1	0.286163
10	5	2	2	0.374817
10	5	3	1	0.326472
10	5	3	2	0.399619
10	5	4	1	0.257070
10	5	4	2	0.306247
10	5	5	1	0.534355
10	5	5	2	1.173866
10	3	1	1	0.442913
10	3	1	2	0.854183
10	3	2	1	0.301833
10	3	2	2	0.416205
10	3	3	1	0.340328
10	3	3	2	0.413505
10	3	4	1	0.279143
10	3	4	2	0.357106
10	3	5	1	0.464402
10	3	5	2	0.927456
0	4	1	1	0.442913
0	4	1	2	0.854183
0	4	2	1	0.279143
0	4	2	2	0.357106
0	4	3	1	0.254672
0	4	3	2	0.307099
0	4	4	1	0.259262
0	4	4	2	0.310848
0	4	5	1	0.415716
0	4	5	2	0.763383
0	9	1	1	0.568043
0	9	1	2	1.296180
0	9	2	1	0.246353
0	9	2	2	0.289331
0	9	3	1	0.274382
0	9	3	2	0.338023
0	9	4	1	0.255055
0	9	4	2	0.302151
0	9	5	1	0.366437
0	9	5	2	0.605446
0	2	1	1	0.568043
0	2	1	2	1.296180
0	2	2	1	0.247870
0	2	2	2	0.289292
0	2	3	1	0.269185
0	2	3	2	0.330552
0	2	4	1	0.246353
0	2	4	2	0.289331
0	2	5	1	0.429105
0	2	5	2	0.807797
0	10	1	1	0.479240
0	10	1	2	0.978767
0	10	2	1	0.279143
0	10	2	2	0.357106
0	10	3	1	0.295088
0	10	3	2	0.364835
0	10	4	1	0.289880
0	10	4	2	0.384419
0	10	5	1	0.422358
0	10	5	2	0.785344
0	8	1	1	0.551002
0	8	1	2	1.234039
0	8	2	1	0.306076
0	8	2	2	0.427793
0	8	3	1	0.397708
0	8	3	2	0.465383
0	8	4	1	0.247702
0	8	4	2	0.293050
0	8	5	1	0.435957
0	8	5	2	0.830744
0	7	1	1	0.390210
0	7	1	2	0.680469
0	7	2	1	0.272696
0	7	2	2	0.341388
0	7	3	1	0.274382
0	7	3	2	0.338023
0	7	4	1	0.253223
0	7	4	2	0.298561
0	7	5	1	0.366437
0	7	5	2	0.605446
0	6	1	1	0.449973
0	6	1	2	0.878115
0	6	2	1	0.253223
0	6	2	2	0.298561
0	6	3	1	0.356456
0	6	3	2	0.428864
0	6	4	1	0.310446
0	6	4	2	0.439877
0	6	5	1	0.464402
0	6	5	2	0.927456
0	3	1	1	0.464402
0	3	1	2	0.927456
0	3	2	1	0.257070
0	3	2	2	0.306247
0	3	3	1	0.250401
0	3	3	2	0.298951
0	3	4	1	0.306076
0	3	4	2	0.427793
0	3	5	1	0.378104
0	3	5	2	0.641971
0	1	1	1	0.494484
0	1	1	2	1.032048
0	1	2	1	0.246187
0	1	2	2	0.287745
0	1	3	1	0.254672
0	1	3	2	0.307099
0	1	4	1	0.250135
0	1	4	2	0.292905
0	1	5	1	0.366437
0	1	5	2	0.605446
0	5	1	1	0.502258
0	5	1	2	1.059427
0	5	2	1	0.279143
0	5	2	2	0.357106
0	5	3	1	0.295088
0	5	3	2	0.364835
0	5	4	1	0.251580
0	5	4	2	0.295478
0	5	5	1	0.378104
0	5	5	2	0.641971
4	0	1	1	0.494484
4	0	1	2	1.032048
4	0	2	1	0.272696
4	0	2	2	0.341388
4	0	3	1	0.340328
4	0	3	2	0.413505
4	0	4	1	0.269695
4	0	4	2	0.334278
4	0	5	1	0.534355
4	0	5	2	1.173866
9	0	1	1	0.464402
9	0	1	2	0.927456
9	0	2	1	0.248870
9	0	2	2	0.295725
9	0	3	1	0.295088
9	0	3	2	0.364835
9	0	4	1	0.246504
9	0	4	2	0.287741
9	0	5	1	0.402749
9	0	5	2	0.720940
2	0	1	1	0.479240
2	0	1	2	0.978767
2	0	2	1	0.250135
2	0	2	2	0.292905
2	0	3	1	0.252324
2	0	3	2	0.302739
2	0	4	1	0.257070
2	0	4	2	0.306247
2	0	5	1	0.435957
2	0	5	2	0.830744
10	0	1	1	0.422358
10	0	1	2	0.785344
10	0	2	1	0.269695
10	0	2	2	0.334278
10	0	3	1	0.326472
10	0	3	2	0.399619
10	0	4	1	0.247069
10	0	4	2	0.288257
10	0	5	1	0.415716
10	0	5	2	0.763383
8	0	1	1	0.568043
8	0	1	2	1.296180
8	0	2	1	0.282583
8	0	2	2	0.365713
8	0	3	1	0.397708
8	0	3	2	0.465383
8	0	4	1	0.279143
8	0	4	2	0.357106
8	0	5	1	0.442913
8	0	5	2	0.854183
7	0	1	1	0.576712
7	0	1	2	1.327989
7	0	2	1	0.306076
7	0	2	2	0.427793
7	0	3	1	0.456768
7	0	3	2	0.513825
7	0	4	1	0.248870
7	0	4	2	0.295725
7	0	5	1	0.366437
7	0	5	2	0.605446
6	0	1	1	0.494484
6	0	1	2	1.032048
6	0	2	1	0.269695
6	0	2	2	0.334278
6	0	3	1	0.375359
6	0	3	2	0.446007
6	0	4	1	0.247702
6	0	4	2	0.293050
6	0	5	1	0.378104
6	0	5	2	0.641971
3	0	1	1	0.457136
3	0	1	2	0.902539
3	0	2	1	0.246504
3	0	2	2	0.287741
3	0	3	1	0.424417
3	0	3	2	0.487653
3	0	4	1	0.248895
3	0	4	2	0.290842
3	0	5	1	0.457136
3	0	5	2	0.902539
1	0	1	1	0.429105
1	0	1	2	0.807797
1	0	2	1	0.246353
1	0	2	2	0.289331
1	0	3	1	0.250401
1	0	3	2	0.298951
1	0	4	1	0.264155
1	0	4	2	0.321560
1	0	5	1	0.457136
1	0	5	2	0.902539
5	0	1	1	0.551002
5	0	1	2	1.234039
5	0	2	1	0.246353
5	0	2	2	0.289331
5	0	3	1	0.340328
5	0	3	2	0.413505
5	0	4	1	0.289880
5	0	4	2	0.384419
5	0	5	1	0.479240
5	0	5	2	0.978767
;
